 Generated by MPModelProtoExporter
   Name             : 
   Format           : Free
   Constraints      : 21
   Variables        : 46
     Binary         : 46
     Integer        : 0
     Continuous     : 0
Minimize
 Obj: +10 Y_1_0 +8 Y_1_1 +7 Y_1_2 +5 Y_1_3 +2 Y_1_4 +1 Y_1_5 +10 Y_2_0 +9 Y_2_1 +8 Y_2_2 +7 Y_2_3 +6 Y_2_4 +5 Y_2_5 +4 Y_2_6 +3 Y_2_7 +2 Y_2_8 +10 Y_3_0 +9 Y_3_1 +8 Y_3_2 +7 Y_3_3 +6 Y_3_4 +5 Y_3_5 +4 Y_3_6 +3 Y_3_7 +2 Y_3_8 +10 Y_4_0 +9 Y_4_1 +8 Y_4_2 +7 Y_4_3 +6 Y_4_4 +5 Y_4_5 +4 Y_4_6 +3 Y_4_7 +2 Y_4_8 
Subject to
 auto_c_000000000: +1 Y_1_0 +1 Y_1_1 +1 Y_1_2 +1 Y_1_3 +1 Y_1_4 +1 Y_1_5 +1 Y_1_6  = 1
 auto_c_000000001: +1 Y_2_0 +1 Y_2_1 +1 Y_2_2 +1 Y_2_3 +1 Y_2_4 +1 Y_2_5 +1 Y_2_6 +1 Y_2_7 +1 Y_2_8  = 1
 auto_c_000000002: +1 Y_3_0 +1 Y_3_1 +1 Y_3_2 +1 Y_3_3 +1 Y_3_4 +1 Y_3_5 +1 Y_3_6 +1 Y_3_7 +1 Y_3_8  = 1
 auto_c_000000003: +1 Y_4_0 +1 Y_4_1 +1 Y_4_2 +1 Y_4_3 +1 Y_4_4 +1 Y_4_5 +1 Y_4_6 +1 Y_4_7 +1 Y_4_8  = 1
 auto_c_000000004: +1 Y_2_1 +1 Y_2_2 +1 Y_2_3 +1 Y_2_4 +1 Y_2_5 +1 Y_2_6 +1 Y_2_7 +1 Y_2_8 -1 X_1_2 -1 X_3_2 -1 X_4_2  <= 0
 auto_c_000000005: +1 Y_3_1 +1 Y_3_2 +1 Y_3_3 +1 Y_3_4 +1 Y_3_5 +1 Y_3_6 +1 Y_3_7 +1 Y_3_8 -1 X_1_3 -1 X_2_3 -1 X_4_3  <= 0
 auto_c_000000006: +1 Y_4_1 +1 Y_4_2 +1 Y_4_3 +1 Y_4_4 +1 Y_4_5 +1 Y_4_6 +1 Y_4_7 +1 Y_4_8 -1 X_1_4 -1 X_2_4 -1 X_3_4  <= 0
 auto_c_000000007: -1 X_1_2 +1 X_2_1 +1 X_2_3 +1 X_2_4 -1 X_3_2 -1 X_4_2  <= 0
 auto_c_000000008: -1 X_1_3 -1 X_2_3 +1 X_3_1 +1 X_3_2 +1 X_3_4 -1 X_4_3  <= 0
 auto_c_000000009: -1 X_1_4 -1 X_2_4 -1 X_3_4 +1 X_4_1 +1 X_4_2 +1 X_4_3  <= 0
 auto_c_000000010: +30 Y_1_1 +60 Y_1_2 +90 Y_1_3 +120 Y_1_4 +150 Y_1_5 +180 Y_1_6 +30 Y_2_1 +60 Y_2_2 +90 Y_2_3 +120 Y_2_4 +150 Y_2_5 +180 Y_2_6 +210 Y_2_7 +240 Y_2_8 +30 Y_3_1 +60 Y_3_2 +90 Y_3_3 +120 Y_3_4 +150 Y_3_5 +180 Y_3_6 +210 Y_3_7 +240 Y_3_8 +30 Y_4_1 +60 Y_4_2 +90 Y_4_3 +120 Y_4_4 +150 Y_4_5 +180 Y_4_6 +210 Y_4_7 +240 Y_4_8 +43.5 X_1_2 +47 X_1_3 +50.5 X_1_4 +43.5 X_2_1 +43.5 X_2_3 +47 X_2_4 +47 X_3_1 +43.5 X_3_2 +43.5 X_3_4 +50.5 X_4_1 +47 X_4_2 +43.5 X_4_3  <= 6000
 auto_c_000000011: +1 X_1_2 +1 X_1_3  <= 1
 auto_c_000000012: +1 X_1_2 +1 X_1_4  <= 1
 auto_c_000000013: +1 X_1_3 +1 X_1_4  <= 1
 auto_c_000000014: +1 X_2_3 +1 X_2_4  <= 1
 auto_c_000000015: +1 X_2_1  = 0
 auto_c_000000016: +1 X_3_1  = 0
 auto_c_000000017: +1 X_3_2  = 0
 auto_c_000000018: +1 X_4_1  = 0
 auto_c_000000019: +1 X_4_2  = 0
 auto_c_000000020: +1 X_4_3  = 0
Bounds
 0 <= Y_1_0 <= 1
 0 <= Y_1_1 <= 1
 0 <= Y_1_2 <= 1
 0 <= Y_1_3 <= 1
 0 <= Y_1_4 <= 1
 0 <= Y_1_5 <= 1
 0 <= Y_1_6 <= 1
 0 <= Y_2_0 <= 1
 0 <= Y_2_1 <= 1
 0 <= Y_2_2 <= 1
 0 <= Y_2_3 <= 1
 0 <= Y_2_4 <= 1
 0 <= Y_2_5 <= 1
 0 <= Y_2_6 <= 1
 0 <= Y_2_7 <= 1
 0 <= Y_2_8 <= 1
 0 <= Y_3_0 <= 1
 0 <= Y_3_1 <= 1
 0 <= Y_3_2 <= 1
 0 <= Y_3_3 <= 1
 0 <= Y_3_4 <= 1
 0 <= Y_3_5 <= 1
 0 <= Y_3_6 <= 1
 0 <= Y_3_7 <= 1
 0 <= Y_3_8 <= 1
 0 <= Y_4_0 <= 1
 0 <= Y_4_1 <= 1
 0 <= Y_4_2 <= 1
 0 <= Y_4_3 <= 1
 0 <= Y_4_4 <= 1
 0 <= Y_4_5 <= 1
 0 <= Y_4_6 <= 1
 0 <= Y_4_7 <= 1
 0 <= Y_4_8 <= 1
 0 <= X_1_2 <= 1
 0 <= X_1_3 <= 1
 0 <= X_1_4 <= 1
 0 <= X_2_1 <= 1
 0 <= X_2_3 <= 1
 0 <= X_2_4 <= 1
 0 <= X_3_1 <= 1
 0 <= X_3_2 <= 1
 0 <= X_3_4 <= 1
 0 <= X_4_1 <= 1
 0 <= X_4_2 <= 1
 0 <= X_4_3 <= 1
Binaries
 Y_1_0
 Y_1_1
 Y_1_2
 Y_1_3
 Y_1_4
 Y_1_5
 Y_1_6
 Y_2_0
 Y_2_1
 Y_2_2
 Y_2_3
 Y_2_4
 Y_2_5
 Y_2_6
 Y_2_7
 Y_2_8
 Y_3_0
 Y_3_1
 Y_3_2
 Y_3_3
 Y_3_4
 Y_3_5
 Y_3_6
 Y_3_7
 Y_3_8
 Y_4_0
 Y_4_1
 Y_4_2
 Y_4_3
 Y_4_4
 Y_4_5
 Y_4_6
 Y_4_7
 Y_4_8
 X_1_2
 X_1_3
 X_1_4
 X_2_1
 X_2_3
 X_2_4
 X_3_1
 X_3_2
 X_3_4
 X_4_1
 X_4_2
 X_4_3
End
